 vasp.5.3.3 18Dez12 (build Oct 30 2014 23:44:25) complex

 executed on             LinuxIFC date 2016.04.03  12:03:37

 INCAR:
 POTCAR:   PAW_PBE Hf_pv 06Sep2000
 POTCAR:   PAW_PBE N 08Apr2002
 POTCAR:   PAW_PBE Hf_pv 06Sep2000
   VRHFIN =Hf: 5p6s5d

   TITEL  = PAW_PBE Hf_pv 06Sep2000
   POMASS =  178.490; ZVAL   =   10.000    mass and valenz
   ENMAX  =  220.342; ENMIN  =  165.256 eV
   QCUT   =   -4.024; QGAM   =    8.049    optimization parameters

   Description
     l     E      TYP  RCUT    TYP  RCUT
     1   .000     23  2.500
     1   .000     23  2.500
     2   .000     23  2.500
     2   .000     23  2.500
     0   .000     23  2.600
     0   .000     23  2.600
     3   .000      7   .000

 POTCAR:   PAW_PBE N 08Apr2002
   VRHFIN =N: s2p3

   TITEL  = PAW_PBE N 08Apr2002
   POMASS =   14.001; ZVAL   =    5.000    mass and valenz
   ENMAX  =  400.000; ENMIN  =  300.000 eV
   QCUT   =   -5.562; QGAM   =   11.124    optimization parameters

   Description
     l     E      TYP  RCUT    TYP  RCUT
     0   .000     23  1.200
     0   .000     23  1.200
     1   .000     23  1.500
     1   .700     23  1.500
     2   .000      7  1.500

 PAW_PBE Hf_pv 06Sep2000                :
 PAW_PBE N 08Apr2002                    :

 POSCAR: SG44HfN10_0GPa_conventionalcell\(2)
  positions in direct lattice
  velocities in cartesian coordinates
 exchange correlation table for  LEXCH =        8
   RHO(1)=    0.500       N(1)  =     2000
   RHO(2)=  100.500       N(2)  =     4000

 ion  position               nearest neighbor table
   1  0.500  0.500  0.721-  15 2.36  16 2.36  17 2.36  18 2.36   7 2.36   8 2.36   9 2.36  10 2.36

   2  0.000  0.000  0.221-  11 2.36  14 2.36  13 2.36  12 2.36   3 2.36   4 2.36   5 2.36   6 2.36

   3  0.809  0.193  0.897-  11 1.33  16 1.35   2 2.36
   4  0.191  0.807  0.897-  12 1.33  15 1.35   2 2.36
   5  0.809  0.807  0.897-  13 1.33  18 1.35   2 2.36
   6  0.191  0.193  0.897-  14 1.33  17 1.35   2 2.36
   7  0.309  0.693  0.397-  15 1.33  12 1.35   1 2.36
   8  0.691  0.307  0.397-  16 1.33  11 1.35   1 2.36
   9  0.309  0.307  0.397-  17 1.33  14 1.35   1 2.36
  10  0.691  0.693  0.397-  18 1.33  13 1.35   1 2.36
  11  0.809  0.193  0.544-   3 1.33   8 1.35   2 2.36
  12  0.191  0.807  0.544-   4 1.33   7 1.35   2 2.36
  13  0.809  0.807  0.544-   5 1.33  10 1.35   2 2.36
  14  0.191  0.193  0.544-   6 1.33   9 1.35   2 2.36
  15  0.309  0.693  0.044-   7 1.33   4 1.35   1 2.36
  16  0.691  0.307  0.044-   8 1.33   3 1.35   1 2.36
  17  0.309  0.307  0.044-   9 1.33   6 1.35   1 2.36
  18  0.691  0.693  0.044-  10 1.33   5 1.35   1 2.36
  19  0.000  0.500  0.369-  21 1.11
  20  0.500  0.000  0.869-  22 1.11
  21  0.000  0.500  0.072-  19 1.11
  22  0.500  0.000  0.572-  20 1.11

  LATTYP: Found a simple orthorhombic cell.
 ALAT       =     3.7553799216
 B/A-ratio  =     1.9791816335
 C/A-ratio  =     1.9900617709

  Lattice vectors:

 A1 = (   0.0000000000,   0.0000000000,  -3.7553799216)
 A2 = (   0.0000000000,  -7.4325789676,   0.0000000000)
 A3 = (  -7.4734380174,   0.0000000000,   0.0000000000)

Analysis of symmetry for initial positions (statically):
 Subroutine PRICEL returns following result:

  LATTYP: Found a body centered orthorhombic cell.
 ALAT       =     3.7553799216
 B/A-ratio  =     1.9791816335
 C/A-ratio  =     1.9900617709

[...]

   2 primitive cells build up your supercell.

 Routine SETGRP: Setting up the symmetry group for a
 simple orthorhombic supercell.

 Subroutine GETGRP returns: Found  4 space group operations
 (whereof  4 operations were pure point group operations)
 out of a pool of  8 trial point group operations.

The static configuration has the point symmetry C_2v.

Analysis of symmetry for dynamics (positions and initial velocities):
 Subroutine PRICEL returns following result:

  LATTYP: Found a body centered orthorhombic cell.
 ALAT       =     3.7553799216
 B/A-ratio  =     1.9791816335
 C/A-ratio  =     1.9900617709

  Lattice vectors:

 A1 = (  -3.7367190087,  -3.7162894838,   1.8776899647)
 A2 = (  -3.7367190087,   3.7162894838,  -1.8776899569)
 A3 = (   3.7367190087,  -3.7162894838,  -1.8776899647)

   2 primitive cells build up your supercell.

 Routine SETGRP: Setting up the symmetry group for a
 simple orthorhombic supercell.

 Subroutine GETGRP returns: Found  4 space group operations
 (whereof  4 operations were pure point group operations)
 out of a pool of  8 trial point group operations.

The dynamic configuration has the point symmetry C_2v.

 irot  :   1
 isymop:   1   0   0
           0   1   0
           0   0   1

 gtrans:     0.0000000     0.0000000     0.0000000

 ptrans:     0.0000000     0.0000000     0.0000000
 rotmap:
 (   1->   1)  (   2->   2)  (   3->   3)  (   4->   4)  (   5->   5)
 (   6->   6)  (   7->   7)  (   8->   8)  (   9->   9)  (  10->  10)
 (  11->  11)  (  12->  12)  (  13->  13)  (  14->  14)  (  15->  15)
 (  16->  16)  (  17->  17)  (  18->  18)  (  19->  19)  (  20->  20)
 (  21->  21)  (  22->  22)

[...]

 irot  :   4
 isymop:  -1   0   0
           0  -1   0
           0   0   1

 gtrans:     0.0000000     0.0000000     0.0000000

[...]

 ptrans:     0.5000000     0.5000000     0.5000000
 rotmap:
 (   1->   2)  (   2->   1)  (   3->   8)  (   4->   7)  (   5->  10)
 (   6->   9)  (   7->   4)  (   8->   3)  (   9->   6)  (  10->   5)
 (  11->  16)  (  12->  15)  (  13->  18)  (  14->  17)  (  15->  12)
 (  16->  11)  (  17->  14)  (  18->  13)  (  19->  20)  (  20->  19)
 (  21->  22)  (  22->  21)

 KPOINTS: Automatic generation

Automatic generation of k-mesh.
Space group operators:
 irot       det(A)        alpha          n_x          n_y          n_z        tau_x        tau_y        tau_z
    1     1.000000     0.000001     1.000000     0.000000     0.000000     0.000000     0.000000     0.000000
    2    -1.000000   180.000000     1.000000     0.000000     0.000000     0.000000     0.000000     0.000000
    3    -1.000000   179.999999     0.000000     1.000000     0.000000     0.000000     0.000000     0.000000
    4     1.000000   180.000000     0.000000     0.000000     1.000000     0.000000     0.000000     0.000000

 Subroutine IBZKPT returns following result:

 Found    512 irreducible k-points:

 Following reciprocal coordinates:
            Coordinates               Weight
  0.000000  0.000000  0.000000      1.000000
  0.066667  0.000000  0.000000      2.000000
  0.133333  0.000000  0.000000      2.000000
  0.200000  0.000000  0.000000      2.000000
  0.266667  0.000000  0.000000      2.000000
  0.333333  0.000000  0.000000      2.000000
  0.400000  0.000000  0.000000      2.000000
  0.466667  0.000000  0.000000      2.000000
  0.000000  0.066667  0.000000      2.000000
  0.066667  0.066667  0.000000      4.000000
  0.133333  0.066667  0.000000      4.000000
  0.200000  0.066667  0.000000      4.000000
  0.266667  0.066667  0.000000      4.000000
  0.333333  0.066667  0.000000      4.000000
  0.400000  0.066667  0.000000      4.000000
  0.466667  0.066667  0.000000      4.000000
  0.000000  0.133333  0.000000      2.000000
  0.066667  0.133333  0.000000      4.000000
  0.133333  0.133333  0.000000      4.000000
  0.200000  0.133333  0.000000      4.000000
  0.266667  0.133333  0.000000      4.000000
  0.333333  0.133333  0.000000      4.000000
  0.400000  0.133333  0.000000      4.000000
  0.466667  0.133333  0.000000      4.000000
  0.000000  0.200000  0.000000      2.000000
  0.066667  0.200000  0.000000      4.000000
  0.133333  0.200000  0.000000      4.000000
  0.200000  0.200000  0.000000      4.000000
  0.266667  0.200000  0.000000      4.000000
  0.333333  0.200000  0.000000      4.000000
  0.400000  0.200000  0.000000      4.000000
  0.466667  0.200000  0.000000      4.000000
  0.000000  0.266667  0.000000      2.000000
  0.066667  0.266667  0.000000      4.000000
  0.133333  0.266667  0.000000      4.000000
  0.200000  0.266667  0.000000      4.000000
  0.266667  0.266667  0.000000      4.000000
  0.333333  0.266667  0.000000      4.000000
  0.400000  0.266667  0.000000      4.000000
  0.466667  0.266667  0.000000      4.000000
  0.000000  0.333333  0.000000      2.000000
  0.066667  0.333333  0.000000      4.000000
  0.133333  0.333333  0.000000      4.000000
  0.200000  0.333333  0.000000      4.000000
  0.266667  0.333333  0.000000      4.000000
  0.333333  0.333333  0.000000      4.000000
  0.400000  0.333333  0.000000      4.000000
  0.466667  0.333333  0.000000      4.000000
  0.000000  0.400000  0.000000      2.000000
  0.066667  0.400000  0.000000      4.000000
  0.133333  0.400000  0.000000      4.000000
  0.200000  0.400000  0.000000      4.000000
  0.266667  0.400000  0.000000      4.000000
  0.333333  0.400000  0.000000      4.000000
  0.400000  0.400000  0.000000      4.000000
  0.466667  0.400000  0.000000      4.000000
  0.000000  0.466667  0.000000      2.000000
  0.066667  0.466667  0.000000      4.000000
  0.133333  0.466667  0.000000      4.000000
  0.200000  0.466667  0.000000      4.000000
[...]
  0.066667  0.400000  0.466667      8.000000
  0.133333  0.400000  0.466667      8.000000
  0.200000  0.400000  0.466667      8.000000
  0.266667  0.400000  0.466667      8.000000
  0.333333  0.400000  0.466667      8.000000
  0.400000  0.400000  0.466667      8.000000
  0.466667  0.400000  0.466667      8.000000
  0.000000  0.466667  0.466667      4.000000
  0.066667  0.466667  0.466667      8.000000
  0.133333  0.466667  0.466667      8.000000
  0.200000  0.466667  0.466667      8.000000
  0.266667  0.466667  0.466667      8.000000
  0.333333  0.466667  0.466667      8.000000
  0.400000  0.466667  0.466667      8.000000
  0.466667  0.466667  0.466667      8.000000

 Following cartesian coordinates:
            Coordinates               Weight
  0.000000  0.000000  0.000000      1.000000
  0.008920  0.000000  0.000000      2.000000
  0.017841  0.000000  0.000000      2.000000
  0.026761  0.000000  0.000000      2.000000
  0.035682  0.000000  0.000000      2.000000
  0.044602  0.000000  0.000000      2.000000
  0.053523  0.000000  0.000000      2.000000
  0.062443  0.000000  0.000000      2.000000
  0.000000  0.008970  0.000000      2.000000
  0.008920  0.008970  0.000000      4.000000
  0.017841  0.008970  0.000000      4.000000
  0.026761  0.008970  0.000000      4.000000
  0.035682  0.008970  0.000000      4.000000
  0.044602  0.008970  0.000000      4.000000
  0.053523  0.008970  0.000000      4.000000
  0.062443  0.008970  0.000000      4.000000
  0.000000  0.017939  0.000000      2.000000
  0.008920  0.017939  0.000000      4.000000
  0.017841  0.017939  0.000000      4.000000
  0.026761  0.017939  0.000000      4.000000
  0.035682  0.017939  0.000000      4.000000
  0.044602  0.017939  0.000000      4.000000
  0.053523  0.017939  0.000000      4.000000
  0.062443  0.017939  0.000000      4.000000
  0.000000  0.026909  0.000000      2.000000
  0.008920  0.026909  0.000000      4.000000
  0.017841  0.026909  0.000000      4.000000
  0.026761  0.026909  0.000000      4.000000
  0.035682  0.026909  0.000000      4.000000
  0.044602  0.026909  0.000000      4.000000
  0.053523  0.026909  0.000000      4.000000
[...]
         Band energy:-848.010307;  BLOECHL correction: -0.036124

 eigenvalue-minimisations  : 74328
 total energy-change (2. order) :-0.1773061E+03  (-0.7066582E+02)
 number of electron     120.0000012 magnetization
 augmentation part      120.0000012 magnetization

 Free energy of the ion-electron system (eV)
  alpha Z        PSCENC =       465.63813320
  Ewald energy   TEWEN  =     -5617.19384524
  -1/2 Hartree   DENC   =     -1632.79942333
  -exchange  EXHF       =         0.00000000
  -V(xc)+E(xc)   XCENC  =       452.82540772
  PAW double counting   =      4241.28005125    -4249.04975042
  entropy T*S    EENTRO =         0.00000000
  eigenvalues    EBANDS =      -848.01030722
  atomic energy  EATOM  =      7010.00360772
  free energy    TOTEN  =      -177.30612633 eV

  energy without entropy =     -177.30612633  energy(sigma->0) =     -177.30612633

[...]

----------------------------------------- Iteration    1(   8)  ---------------------------------------

[...]

 eigenvalue-minimisations  : 58256
 total energy-change (2. order) :-0.9081305E-08  (-0.9475025E-08)
 number of electron     120.0000012 magnetization
 augmentation part      120.0000012 magnetization

 Free energy of the ion-electron system (eV)
  alpha Z        PSCENC =       465.63813320
  Ewald energy   TEWEN  =     -5617.19384524
  -1/2 Hartree   DENC   =     -1632.79942333
  -exchange  EXHF       =         0.00000000
  -V(xc)+E(xc)   XCENC  =       452.82540772
  PAW double counting   =      4241.28005125    -4249.04975042
  entropy T*S    EENTRO =         0.00000000
  eigenvalues    EBANDS =      -853.21532903
  atomic energy  EATOM  =      7010.00360772
  free energy    TOTEN  =      -182.51114813 eV

  energy without entropy =     -182.51114813  energy(sigma->0) =     -182.51114813

 average (electrostatic) potential at core
  the test charge radii are     1.1707  0.7089
  (the norm of the test charge is              1.0000)
       1 -38.2592       2 -38.2592       3 -66.2460       4 -66.2460       5 -66.2460
       6 -66.2460       7 -66.2460       8 -66.2460       9 -66.2460      10 -66.2460
      11 -66.2458      12 -66.2458      13 -66.2458      14 -66.2458      15 -66.2458
      16 -66.2458      17 -66.2458      18 -66.2458      19 -65.7355      20 -65.7356
      21 -65.7358      22 -65.7358

 E-fermi :   5.3812     XC(G=0): -11.0730     alpha+bet :-10.8930

 k-point   1 :       0.0000    0.0000    0.0000
  band No.  band energies     occupation
      1     -26.2457      2.00000
      2     -26.2414      2.00000
      3     -26.2315      2.00000
      4     -26.2271      2.00000
      5     -26.2058      2.00000
      6     -26.2047      2.00000
      7     -19.6478      2.00000
      8     -19.3794      2.00000
      9     -19.3779      2.00000
     10     -19.3464      2.00000
     11     -18.0511      2.00000
     12     -17.9406      2.00000
     13     -14.3848      2.00000
     14     -14.0541      2.00000
     15     -14.0531      2.00000
     16     -13.8548      2.00000
     17     -12.3323      2.00000
     18     -12.3078      2.00000
     19     -12.3069      2.00000
     20     -12.2211      2.00000
     21      -6.8355      2.00000
     22      -6.2437      2.00000
     23      -6.2204      2.00000
     24      -5.8694      2.00000
     25      -5.8338      2.00000
     26      -4.9101      2.00000
     27      -4.7603      2.00000
     28      -4.6895      2.00000
     29      -4.4163      2.00000
     30      -3.8329      2.00000
     31      -3.6219      2.00000
     32      -2.9067      2.00000
     33      -2.7261      2.00000
     34      -2.7151      2.00000
     35      -2.3876      2.00000
     36      -2.3587      2.00000
     37      -2.0751      2.00000
     38      -1.8428      2.00000
     39      -1.7868      2.00000
     40      -1.6585      2.00000
     41      -1.1180      2.00000
     42      -0.8221      2.00000
     43      -0.5880      2.00000
     44      -0.4701      2.00000
     45      -0.3457      2.00000
     46       0.0486      2.00000
     47       0.4848      2.00000
     48       0.4864      2.00000
     49       0.5515      2.00000
     50       1.4434      2.00000
     51       1.4947      2.00000
     52       2.2967      2.00000
     53       2.3908      2.00000
     54       2.4415      2.00000
     55       2.7109      2.00000
     56       2.7365      2.00000
     57       2.7645      2.00000
     58       3.0015      2.00000
     59       3.3140      2.00000
     60       3.7546      2.00000
     61       4.1499      2.00000
     62       5.6253      0.00000
     63       7.5548      0.00000
     64       7.6078      0.00000
     65       8.0071      0.00000
     66       8.1121      0.00000
     67       8.1440      0.00000
     68       8.8328      0.00000
     69       8.8361      0.00000
     70       9.1498      0.00000
     71       9.2382      0.00000
     72       9.6966      0.00000

[...]

 k-point 512 :       0.4667    0.4667    0.4667
  band No.  band energies     occupation
      1     -26.2926      2.00000
      2     -26.2926      2.00000
      3     -26.2215      2.00000
      4     -26.2215      2.00000
      5     -26.2169      2.00000
      6     -26.2169      2.00000
      7     -18.1919      2.00000
      8     -18.1897      2.00000
      9     -17.9376      2.00000
     10     -17.9359      2.00000
     11     -17.7925      2.00000
     12     -17.7907      2.00000
     13     -17.4675      2.00000
     14     -17.4667      2.00000
     15     -17.4144      2.00000
     16     -17.4136      2.00000
     17      -9.2394      2.00000
     18      -9.2325      2.00000
     19      -9.1046      2.00000
     20      -9.1007      2.00000
     21      -8.6931      2.00000
     22      -8.6588      2.00000
     23      -8.6484      2.00000
     24      -8.6160      2.00000
     25      -4.4725      2.00000
     26      -4.4718      2.00000
     27      -2.9627      2.00000
     28      -2.9580      2.00000
     29      -2.5008      2.00000
     30      -2.5001      2.00000
     31      -2.1486      2.00000
     32      -2.1365      2.00000
     33      -2.0967      2.00000
     34      -2.0871      2.00000
     35      -1.8804      2.00000
     36      -1.8769      2.00000
     37      -1.6454      2.00000
     38      -1.6421      2.00000
     39      -1.3802      2.00000
     40      -1.3772      2.00000
     41      -1.1487      2.00000
     42      -1.1391      2.00000
     43      -0.4982      2.00000
     44      -0.4922      2.00000
     45      -0.3060      2.00000
     46      -0.3034      2.00000
     47      -0.1680      2.00000
     48      -0.1667      2.00000
     49       0.2045      2.00000
     50       0.2377      2.00000
     51       0.3763      2.00000
     52       0.4295      2.00000
     53       0.6079      2.00000
     54       0.6300      2.00000
     55       1.2556      2.00000
     56       1.2560      2.00000
     57       4.3459      2.00000
     58       4.3540      2.00000
     59       5.8048     -0.14951
     60       5.8128     -0.08453
     61       6.2620      0.00000
     62       6.2819      0.00000
     63       6.6057      0.00000
     64       6.6255      0.00000
     65       7.6781      0.00000
     66       7.6782      0.00000
     67       7.7190      0.00000
     68       7.7191      0.00000
     69       7.9379      0.00000
     70       7.9379      0.00000
     71       9.5637      0.00000
     72       9.5642      0.00000

 soft charge-density along one line, spin component           1
         0         1         2         3         4         5         6         7         8         9
 total charge-density along one line

------------------------ aborting loop because EDIFF is reached ----------------------------------------

 total charge

# of ion     s       p       d       tot
  1        0.249   6.429   1.425   8.103
  2        0.249   6.429   1.425   8.103
  3        1.245   2.585   0.000   3.830
  4        1.245   2.586   0.000   3.831
  5        1.245   2.586   0.000   3.831
  6        1.244   2.571   0.000   3.815
  7        1.245   2.585   0.000   3.830
  8        1.245   2.586   0.000   3.831
  9        1.245   2.586   0.000   3.831
 10        1.244   2.571   0.000   3.815
 11        1.245   2.586   0.000   3.831
 12        1.245   2.585   0.000   3.830
 13        1.244   2.571   0.000   3.815
 14        1.245   2.586   0.000   3.831
 15        1.245   2.586   0.000   3.831
 16        1.245   2.585   0.000   3.830
 17        1.244   2.571   0.000   3.815
 18        1.245   2.586   0.000   3.831
 19        1.376   2.498   0.000   3.874
 20        1.376   2.498   0.000   3.874
 21        1.376   2.498   0.000   3.874
 22        1.376   2.498   0.000   3.874
tot       25.920  64.156   2.851  92.927

  FORCE on cell =-STRESS in cart. coord.  units (eV):
  Direction    XX          YY          ZZ          XY          YZ          ZX
  Alpha Z   465.63813   465.63813   465.63813
  Ewald   -2571.75918 -2683.70563  -361.74706     0.00000     0.00004     0.00000
  Hartree   299.75005   240.75551  1091.97755     0.00000     0.00000     0.00000
  E(xc)    -509.83981  -510.18937  -502.75170     0.00000     0.00000     0.00000
  Local     318.24707   484.19482 -2438.98314     0.00000    -0.00002     0.00000
  n-local  -328.69851  -327.90065  -344.82014    -0.39159    -0.04117    -0.06571
  augment    52.91376    52.93900    48.43166     0.00000     0.00000     0.00000
  Kinetic  2273.70283  2278.01485  2042.24454     0.87627     0.10364     0.24036
  Fock        0.00000     0.00000     0.00000     0.00000     0.00000     0.00000
  Total      -0.04566    -0.25334    -0.01016     0.00000     0.00000     0.00000
  in kB      -0.35071    -1.94584    -0.07805     0.00000     0.00000     0.00000

 VOLUME and BASIS-vectors are now :
  energy-cutoff  :      600.00
  volume of cell :      208.60
      direct lattice vectors                 reciprocal lattice vectors
     7.473438017  0.000000000  0.000000000     0.133807225  0.000000000  0.000000000
     0.000000000  7.432578968  0.000000000     0.000000000  0.134542802  0.000000000
     0.000000000  0.000000000  3.755379922     0.000000000  0.000000000  0.266284643

  length of vectors
     7.473438017  7.432578968  3.755379922     0.133807225  0.134542802  0.266284643

 FORCES acting on ions
    electron-ion (+dipol)            ewald-force                    non-local-force                 convergence-correction
   0.809E-13 0.209E-06 0.168E-01   0.339E-14 -.497E-05 -.196E-01   0.000E+00 -.424E-21 -.158E-02   -.988E-12 0.468E-05 0.340E-02
   -.775E-14 0.961E-07 0.168E-01   0.730E-14 -.226E-05 -.196E-01   0.000E+00 -.424E-21 -.158E-02   -.106E-11 0.436E-06 0.341E-02
   -.731E+02 0.638E+02 -.482E+02   0.906E+02 -.803E+02 0.649E+02   -.174E+02 0.165E+02 -.166E+02   -.639E-01 0.543E-01 -.825E-02
   0.731E+02 -.638E+02 -.482E+02   -.906E+02 0.803E+02 0.649E+02   0.174E+02 -.165E+02 -.166E+02   0.639E-01 -.543E-01 -.825E-02
   -.731E+02 -.638E+02 -.482E+02   0.906E+02 0.803E+02 0.649E+02   -.174E+02 -.165E+02 -.166E+02   -.639E-01 -.543E-01 -.825E-02
   0.731E+02 0.638E+02 -.482E+02   -.906E+02 -.803E+02 0.649E+02   0.174E+02 0.165E+02 -.166E+02   0.639E-01 0.543E-01 -.825E-02
   -.731E+02 0.638E+02 -.482E+02   0.906E+02 -.803E+02 0.649E+02   -.174E+02 0.165E+02 -.166E+02   -.639E-01 0.544E-01 -.827E-02
   0.731E+02 -.638E+02 -.482E+02   -.906E+02 0.803E+02 0.649E+02   0.174E+02 -.165E+02 -.166E+02   0.639E-01 -.544E-01 -.827E-02
   -.731E+02 -.638E+02 -.482E+02   0.906E+02 0.803E+02 0.649E+02   -.174E+02 -.165E+02 -.166E+02   -.639E-01 -.544E-01 -.827E-02
   0.731E+02 0.638E+02 -.482E+02   -.906E+02 -.803E+02 0.649E+02   0.174E+02 0.165E+02 -.166E+02   0.639E-01 0.544E-01 -.827E-02
   -.732E+02 0.637E+02 0.482E+02   0.906E+02 -.803E+02 -.649E+02   -.174E+02 0.164E+02 0.166E+02   -.625E-01 0.532E-01 0.729E-02
   0.732E+02 -.637E+02 0.482E+02   -.906E+02 0.803E+02 -.649E+02   0.174E+02 -.164E+02 0.166E+02   0.625E-01 -.533E-01 0.729E-02
   -.732E+02 -.637E+02 0.482E+02   0.906E+02 0.803E+02 -.649E+02   -.174E+02 -.164E+02 0.166E+02   -.625E-01 -.533E-01 0.729E-02
   0.732E+02 0.637E+02 0.482E+02   -.906E+02 -.803E+02 -.649E+02   0.174E+02 0.164E+02 0.166E+02   0.625E-01 0.532E-01 0.729E-02
   -.732E+02 0.637E+02 0.482E+02   0.906E+02 -.803E+02 -.649E+02   -.174E+02 0.164E+02 0.166E+02   -.625E-01 0.533E-01 0.734E-02
   0.732E+02 -.637E+02 0.482E+02   -.906E+02 0.803E+02 -.649E+02   0.174E+02 -.164E+02 0.166E+02   0.625E-01 -.533E-01 0.734E-02
   -.732E+02 -.637E+02 0.482E+02   0.906E+02 0.803E+02 -.649E+02   -.174E+02 -.164E+02 0.166E+02   -.625E-01 -.533E-01 0.734E-02
   0.732E+02 0.637E+02 0.482E+02   -.906E+02 -.803E+02 -.649E+02   0.174E+02 0.164E+02 0.166E+02   0.625E-01 0.533E-01 0.734E-02
   0.572E-15 0.251E-06 -.200E+03   -.163E-13 -.595E-05 0.247E+03   0.000E+00 -.260E-17 -.462E+02   0.139E-11 0.564E-05 -.561E-02
   0.142E-12 -.277E-07 -.200E+03   -.121E-13 0.645E-06 0.247E+03   0.000E+00 -.867E-18 -.462E+02   -.498E-12 -.687E-06 -.525E-02
   0.109E-14 0.176E-06 0.200E+03   0.400E-13 -.418E-05 -.247E+03   0.217E-18 -.260E-17 0.462E+02   0.247E-11 0.410E-05 0.539E-02
   0.991E-13 -.126E-07 0.200E+03   -.329E-13 0.277E-06 -.247E+03   0.217E-18 -.867E-18 0.462E+02   0.295E-12 -.393E-06 0.442E-02
   0.588E-11 0.175E-03 0.146E-01   0.639E-13 0.817E-13 -.853E-13   0.711E-14 0.107E-13 -.108E-01   -.386E-11 -.700E-04 -.179E-02

 POSITION                                       TOTAL-FORCE (eV/Angst)
      3.73672      3.71629      2.70696         0.000000      0.000000     -0.001036
      0.00000      0.00000      0.82927         0.000000      0.000000     -0.001036
      6.04957      1.43082      3.36978         0.006093     -0.005208      0.001781
      1.42386      6.00176      3.36978        -0.006093      0.005208      0.001781
      6.04957      6.00176      3.36978         0.006093      0.005208      0.001781
      1.42386      1.43082      3.36978        -0.006093     -0.005208      0.001781
      2.31285      5.14711      1.49209         0.006093     -0.005208      0.001781
      5.16058      2.28547      1.49209        -0.006093      0.005208      0.001781
      2.31285      2.28547      1.49209         0.006093      0.005208      0.001781
      5.16058      5.14711      1.49209        -0.006093     -0.005208      0.001781
      6.04966      1.43089      2.04393         0.006012     -0.005367     -0.001596
      1.42378      6.00168      2.04393        -0.006012      0.005367     -0.001596
      6.04966      6.00168      2.04393         0.006012      0.005367     -0.001596
      1.42378      1.43089      2.04393        -0.006012     -0.005367     -0.001596
      2.31294      5.14718      0.16624         0.006012     -0.005367     -0.001596
      5.16050      2.28539      0.16624        -0.006012      0.005367     -0.001596
      2.31294      2.28539      0.16624         0.006012      0.005367     -0.001596
      5.16050      5.14718      0.16624        -0.006012     -0.005367     -0.001596
      0.00000      3.71629      1.38441         0.000000      0.000000      0.013941
      3.73672      0.00000      3.26210         0.000000      0.000000      0.013941
      0.00000      3.71629      0.27110         0.000000      0.000000     -0.013641
      3.73672      0.00000      2.14879         0.000000      0.000000     -0.013641
    total drift:                                0.000000      0.000105      0.002014

  FREE ENERGIE OF THE ION-ELECTRON SYSTEM (eV)
  free  energy   TOTEN  =      -182.51114813 eV

  energy  without entropy=     -182.51114813  energy(sigma->0) =     -182.51114813

 writing wavefunctions

 total charge

# of ion     s       p       d       tot
  1        0.249   6.429   1.425   8.103
  2        0.249   6.429   1.425   8.103
  3        1.245   2.585   0.000   3.830
  4        1.245   2.586   0.000   3.831
  5        1.245   2.586   0.000   3.831
  6        1.244   2.571   0.000   3.815
  7        1.245   2.585   0.000   3.830
  8        1.245   2.586   0.000   3.831
  9        1.245   2.586   0.000   3.831
 10        1.244   2.571   0.000   3.815
 11        1.245   2.586   0.000   3.831
 12        1.245   2.585   0.000   3.830
 13        1.244   2.571   0.000   3.815
 14        1.245   2.586   0.000   3.831
 15        1.245   2.586   0.000   3.831
 16        1.245   2.585   0.000   3.830
 17        1.244   2.571   0.000   3.815
 18        1.245   2.586   0.000   3.831
 19        1.376   2.498   0.000   3.874
 20        1.376   2.498   0.000   3.874
 21        1.376   2.498   0.000   3.874
 22        1.376   2.498   0.000   3.874
tot       25.920  64.156   2.851  92.927

 BZINTS: Fermi energy:  5.381247;120.000000 electrons
         Band energy:-853.215329;  BLOECHL correction: -0.036469